NAME: instance_3481
TYPE: TSP
DIMENSION: 20
EDGE_WEIGHT_TYPE: EUC_2D
NODE_COORD_SECTION
0 56.04 59.29
1 26.70 53.42
2 59.21 97.10
3 86.83 27.40
4 26.90 57.16
5 65.48 39.73
6 34.98 89.79
7 52.35 70.26
8 8.94 37.71
9 48.91 60.67
10 41.09 60.91
11 28.69 84.16
12 67.67 98.80
13 39.34 5.23
14 90.73 77.96
15 93.36 25.25
16 59.85 10.81
17 11.22 36.62
18 36.07 14.79
19 12.30 12.70
EOF
